
List of user-set options:

                                    Name   Value                used
                           linear_solver = ma97                  yes
                   linear_system_scaling = none                  yes
                              ma86_small = 1e-30                  no
                                  ma86_u = 0.0001                 no
                              ma97_order = best                  yes
                              ma97_small = 1e-30                 yes
                            ma97_switch1 = at_start              yes
                            ma97_switch2 = od_hd_reuse           yes
                                  ma97_u = 1e-06                 yes
                               ma97_umax = 0.1                   yes
                                max_iter = 500                   yes
                    max_refinement_steps = 20                    yes
                    min_refinement_steps = 5                     yes
                                 mu_init = 1e-06                 yes
           mu_superlinear_decrease_power = 1.25                  yes
                   nlp_scaling_min_value = 1e-08                 yes
                        option_file_name = ./ipopt.opt           yes
                             output_file = ./tmp/ipopt_output_tmp.output  yes
                      print_user_options = yes                   yes
        required_infeasibility_reduction = 1                      no
                   warm_start_bound_frac = 1e-20                 yes
                   warm_start_bound_push = 1e-20                 yes
                   warm_start_init_point = yes                   yes
              warm_start_mult_bound_push = 1e-20                 yes
                warm_start_mult_init_max = 1e+20                 yes
             warm_start_slack_bound_frac = 1e-20                 yes
             warm_start_slack_bound_push = 1e-20                 yes

******************************************************************************
This program contains Ipopt, a library for large-scale nonlinear optimization.
 Ipopt is released as open source code under the Eclipse Public License (EPL).
         For more information visit http://projects.coin-or.org/Ipopt
******************************************************************************

This is Ipopt version 3.12.10, running with linear solver ma97.

Number of nonzeros in equality constraint Jacobian...:   117230
Number of nonzeros in inequality constraint Jacobian.:       73
Number of nonzeros in Lagrangian Hessian.............:    47552

Total number of variables............................:    29941
                     variables with only lower bounds:    11292
                variables with lower and upper bounds:    15122
                     variables with only upper bounds:        0
Total number of equality constraints.................:    29903
Total number of inequality constraints...............:        5
        inequality constraints with only lower bounds:        4
   inequality constraints with lower and upper bounds:        0
        inequality constraints with only upper bounds:        1

iter    objective    inf_pr   inf_du lg(mu)  ||d||  lg(rg) alpha_du alpha_pr  ls
   0 -1.2452248e-01 9.91e-05 2.05e-03  -6.0 0.00e+00    -  0.00e+00 0.00e+00   0
   1 -1.2452248e-01 9.91e-05 1.36e+00  -6.0 6.69e+02    -  8.68e-03 5.11e-08f 17
   2 -1.2453763e-01 5.12e-03 3.33e+00  -6.0 6.69e+02    -  3.28e-03 2.55e-02f  1
   3 -1.2454910e-01 8.14e-03 3.43e+00  -6.0 6.46e+02    -  5.12e-02 2.06e-02f  1
   4 -1.2463799e-01 1.94e-01 6.43e+00  -6.0 6.35e+02    -  1.06e-01 1.62e-01f  1
   5 -1.2474857e-01 4.95e-01 1.63e+01  -6.0 5.79e+02    -  3.85e-01 2.43e-01f  1
   6 -1.2463386e-01 7.58e+01 6.26e+01  -6.0 1.09e+04    -  1.97e-01 1.90e-01h  1
   7 -1.2469352e-01 7.20e+01 5.96e+01  -6.0 4.36e+03    -  1.50e-01 6.87e-02h  1
   8 -1.2469196e-01 7.16e+01 7.64e+01  -6.0 3.63e+03    -  4.94e-01 5.92e-03h  1
   9 -1.2427244e-01 2.63e+02 2.85e+02  -6.0 4.77e+03    -  3.47e-01 8.36e-01h  1
iter    objective    inf_pr   inf_du lg(mu)  ||d||  lg(rg) alpha_du alpha_pr  ls
  10 -1.2420707e-01 2.47e+02 2.48e+02  -6.0 5.35e+03    -  1.12e-04 6.79e-02h  1
  11 -1.2420579e-01 1.76e+02 1.76e+02  -6.0 5.97e+02    -  3.37e-01 2.86e-01h  1
  12 -1.2415682e-01 2.53e+00 1.84e+02  -6.0 3.09e+02    -  3.48e-01 1.00e+00h  1
  13 -1.2419528e-01 7.55e-05 3.09e+03  -6.0 2.55e+00  -4.0 6.30e-02 1.00e+00h  1
  14 -1.2420829e-01 5.09e-05 1.21e-01  -6.0 2.38e-01  -4.5 1.00e+00 1.00e+00h  1
  15 -1.2424524e-01 1.56e-04 8.73e-03  -6.0 8.67e-01  -5.0 1.00e+00 1.00e+00h  1
  16 -1.2437089e-01 1.88e-03 1.07e-01  -6.0 2.99e+00  -5.4 1.00e+00 1.00e+00h  1
  17 -1.2452501e-01 3.90e-03 4.57e+00  -6.0 1.51e+01  -5.9 3.14e-01 2.23e-01h  1
  18 -1.2460187e-01 4.31e-03 7.63e+01  -6.0 3.42e+01  -6.4 1.55e-01 4.72e-02f  1
  19 -1.2460239e-01 4.31e-03 1.50e+03  -6.0 8.44e+03    -  1.43e-01 2.50e-04h  2
iter    objective    inf_pr   inf_du lg(mu)  ||d||  lg(rg) alpha_du alpha_pr  ls
  20 -1.2484902e-01 6.66e-03 9.36e+01  -6.0 6.07e+00  -6.9 1.00e+00 1.00e+00h  1
  21 -1.2488668e-01 2.91e-01 5.23e+03  -6.0 3.11e+03    -  1.56e-01 4.76e-02h  1
  22 -1.2477987e-01 4.70e+00 7.77e+03  -6.0 3.18e+04    -  1.03e-02 1.82e-02h  1
  23 -1.2479017e-01 4.48e+00 3.46e+03  -6.0 1.31e+02  -7.3 7.08e-02 4.70e-02h  1
  24 -1.2499060e-01 7.46e-01 1.08e+02  -6.0 1.47e+02  -7.8 2.23e-01 8.33e-01f  1
  25 -1.2490185e-01 1.31e+01 7.28e+01  -6.0 3.20e+03    -  1.02e-02 3.09e-01h  1
  26 -1.2516539e-01 9.42e-01 4.40e+01  -6.0 2.62e+02    -  7.34e-01 1.00e+00h  1
  27 -1.2512540e-01 8.38e-01 2.38e+01  -6.0 6.04e+02    -  1.00e+00 3.84e-01H  1
  28 -1.2514092e-01 2.74e-01 7.69e+00  -6.0 9.47e+01  -8.3 6.75e-01 6.80e-01h  1
  29 -1.2526297e-01 6.52e+00 1.12e+01  -6.0 1.60e+03    -  6.33e-01 8.91e-01H  1
iter    objective    inf_pr   inf_du lg(mu)  ||d||  lg(rg) alpha_du alpha_pr  ls
  30 -1.2522943e-01 3.96e+00 4.04e+01  -6.0 9.27e+02    -  8.65e-01 2.70e-01h  1
  31 -1.2533106e-01 1.30e+00 1.16e+01  -6.0 1.25e+02  -8.8 5.96e-01 1.00e+00h  1
  32 -1.2536498e-01 8.78e-01 5.55e+01  -6.0 1.02e+02  -9.2 5.02e-01 3.19e-01h  1
  33 -1.2539356e-01 1.47e+00 1.24e+02  -6.0 3.43e+02  -9.7 7.74e-01 1.00e+00h  1
  34 -1.2542951e-01 1.15e+00 2.14e+02  -6.0 1.52e+02  -9.3 3.44e-01 2.26e-01h  1
  35 -1.2558789e-01 4.78e-02 4.24e+01  -6.0 6.16e+01  -8.9 1.00e+00 1.00e+00h  1
  36 -1.2559759e-01 4.69e-02 2.71e+03  -6.0 2.74e+02  -9.4 1.62e-01 2.89e-02h  2
  37 -1.2559457e-01 5.39e-02 3.99e+03  -6.0 1.66e+03  -9.8 2.32e-01 1.74e-02h  2
  38 -1.2560097e-01 5.22e-02 2.16e+03  -6.0 4.43e+01  -8.5 8.57e-02 3.15e-02h  2
  39 -1.2568074e-01 4.06e-01 1.78e+01  -6.0 1.82e+02  -9.0 1.00e+00 1.00e+00h  1
iter    objective    inf_pr   inf_du lg(mu)  ||d||  lg(rg) alpha_du alpha_pr  ls
  40 -1.2566882e-01 1.50e+00 4.94e+01  -6.0 4.01e+02  -9.5 4.65e-01 4.48e-01h  1
  41 -1.2562882e-01 8.99e-01 6.29e+01  -6.0 5.15e+02  -9.0 1.26e-01 1.88e-01h  1
  42 -1.2582920e-01 3.87e-01 5.46e+02  -6.0 1.79e+02    -  6.63e-02 1.00e+00h  1
  43 -1.2580499e-01 3.82e-01 4.18e+02  -6.0 4.80e+02  -9.5 2.37e-01 1.75e-01h  1
  44 -1.2589064e-01 5.73e-02 1.22e+01  -6.0 5.53e+01    -  1.00e+00 1.00e+00h  1
  45 -1.2594671e-01 4.70e-02 1.01e+02  -6.0 6.46e+01    -  9.62e-01 3.30e-01h  1
  46 -1.2610773e-01 6.25e-02 8.88e-01  -6.0 5.77e+01 -10.0 1.00e+00 1.00e+00h  1
  47 -1.2614613e-01 8.24e-01 1.08e+02  -6.0 7.46e+02    -  4.73e-01 3.50e-01h  1
  48 -1.2628536e-01 1.33e+00 3.40e+02  -6.0 2.91e+02 -10.5 1.00e+00 7.55e-01h  1
  49 -1.2641193e-01 1.64e+00 6.84e+02  -6.0 3.75e+02    -  1.99e-01 4.34e-01h  1
iter    objective    inf_pr   inf_du lg(mu)  ||d||  lg(rg) alpha_du alpha_pr  ls
  50 -1.2650297e-01 1.19e+00 1.03e+03  -6.0 1.48e+02    -  4.84e-01 2.98e-01h  1
  51 -1.2651709e-01 1.69e+00 1.68e+03  -6.0 1.70e+03    -  2.53e-01 6.58e-02h  1
  52 -1.2664678e-01 7.52e-01 1.29e+03  -6.0 3.26e+02    -  4.78e-01 4.02e-01h  1
  53 -1.2679259e-01 6.87e-01 2.34e+03  -6.0 2.63e+02    -  1.98e-01 6.95e-01h  1
  54 -1.2672830e-01 1.09e-01 2.26e+06  -6.0 3.18e+01  -8.2 4.69e-03 1.00e+00h  1
  55 -1.2669610e-01 5.77e-01 1.26e+02  -6.0 1.56e+02    -  8.86e-01 1.00e+00h  1
  56 -1.2674518e-01 1.02e+00 3.67e+01  -6.0 3.70e+02    -  5.29e-01 7.69e-01h  1
  57 -1.2679083e-01 3.33e-01 1.78e+01  -6.0 1.68e+02    -  2.12e-01 1.00e+00h  1
  58 -1.2679420e-01 1.13e-01 6.18e-01  -6.0 9.83e+01    -  1.00e+00 1.00e+00h  1
  59 -1.2678972e-01 1.29e-01 1.80e+00  -6.0 2.72e+02    -  1.00e+00 1.64e-01h  2
iter    objective    inf_pr   inf_du lg(mu)  ||d||  lg(rg) alpha_du alpha_pr  ls
  60 -1.2678765e-01 6.78e-03 5.37e-02  -6.0 2.24e+01    -  1.00e+00 1.00e+00h  1
  61 -1.2678760e-01 2.22e-04 1.15e-03  -6.0 4.37e+00    -  1.00e+00 1.00e+00h  1
  62 -1.2678760e-01 1.22e-08 6.22e-08  -6.0 3.26e-02    -  1.00e+00 1.00e+00h  1
  63 -1.2702482e-01 1.67e+00 5.44e+01  -7.5 4.36e+02    -  2.80e-01 3.73e-01f  1
  64 -1.2720361e-01 2.49e+00 8.42e+01  -7.5 1.13e+03    -  7.04e-02 2.93e-01h  1
  65 -1.2724365e-01 1.98e+00 8.81e+01  -7.5 1.22e+03    -  2.18e-03 8.22e-02h  1
  66 -1.2725530e-01 1.92e+00 7.59e+01  -7.5 2.33e+03    -  9.59e-02 1.76e-02h  1
  67 -1.2735565e-01 2.50e+00 7.47e+01  -7.5 1.56e+03    -  9.63e-02 2.11e-01f  1
  68 -1.2739293e-01 2.73e+00 4.64e+01  -7.5 3.24e+03    -  2.72e-01 5.39e-02h  1
  69 -1.2758224e-01 1.20e+01 2.77e+01  -7.5 2.29e+03    -  5.15e-01 4.02e-01h  1
iter    objective    inf_pr   inf_du lg(mu)  ||d||  lg(rg) alpha_du alpha_pr  ls
  70 -1.2772419e-01 2.27e+01 1.79e+01  -7.5 3.95e+03    -  3.90e-01 2.63e-01h  1
  71 -1.2788992e-01 4.79e+01 3.53e+01  -7.5 5.07e+03    -  1.92e-01 3.08e-01h  1
  72 -1.2794806e-01 4.90e+01 1.38e+02  -7.5 4.49e+03    -  3.01e-02 1.86e-01h  1
  73 -1.2794471e-01 4.34e+01 3.12e+02  -7.5 2.43e+03    -  5.34e-03 1.61e-01h  2
  74 -1.2796510e-01 3.35e+01 2.40e+02  -7.5 1.80e+02  -8.7 1.22e-01 2.30e-01h  1
  75 -1.2811920e-01 3.83e+01 5.93e+02  -7.5 1.99e+03    -  4.27e-02 6.75e-01h  1
  76 -1.2809592e-01 2.67e-01 2.57e+02  -7.5 9.25e+01  -9.2 5.09e-01 1.00e+00h  1
  77 -1.2812670e-01 3.64e+00 5.90e+02  -7.5 5.82e+03    -  5.12e-01 7.99e-02h  1
  78 -1.2814575e-01 2.61e+00 1.46e+03  -7.5 2.87e+02    -  7.94e-01 2.86e-01h  1
  79 -1.2818440e-01 1.38e+00 2.34e+03  -7.5 1.85e+02    -  1.00e+00 5.27e-01h  1
iter    objective    inf_pr   inf_du lg(mu)  ||d||  lg(rg) alpha_du alpha_pr  ls
  80 -1.2821622e-01 1.43e+00 2.74e+03  -7.5 6.41e+02    -  3.04e-01 2.43e-01h  1
  81 -1.2823747e-01 1.34e+00 6.60e+03  -7.5 1.37e+03    -  6.55e-02 9.33e-02h  1
  82 -1.2823771e-01 1.21e+00 1.58e+04  -7.5 2.63e+02    -  9.65e-04 9.68e-02h  1
  83 -1.2823257e-01 3.00e-01 6.82e+05  -7.5 6.33e+01    -  1.87e-03 7.55e-01h  1
  84 -1.2821686e-01 1.69e-01 1.21e+02  -7.5 1.03e+02    -  1.08e-02 1.00e+00h  1
  85 -1.2821698e-01 1.53e-01 1.10e+02  -7.5 6.05e-01  -5.1 1.33e-01 9.30e-02h  1
  86 -1.2821622e-01 2.53e-04 2.17e+00  -7.5 3.20e-01  -4.7 1.20e-01 1.00e+00h  1
  87 -1.2821658e-01 1.64e-04 1.95e-02  -7.5 7.74e-02  -5.2 1.00e+00 1.00e+00h  1
  88 -1.2821768e-01 1.13e-03 7.79e-03  -7.5 2.07e-01  -5.7 5.74e-01 1.00e+00h  1
  89 -1.2822006e-01 5.22e-03 6.84e-03  -7.5 5.63e-01  -6.1 1.00e+00 7.78e-01h  1
iter    objective    inf_pr   inf_du lg(mu)  ||d||  lg(rg) alpha_du alpha_pr  ls
  90 -1.2822081e-01 7.11e-04 5.19e-02  -7.5 1.38e+00  -6.6 2.52e-02 8.69e-01f  1
  91 -1.2822256e-01 5.77e-04 3.26e-03  -7.5 2.80e+00  -7.1 1.00e+00 1.00e+00f  1
  92 -1.2822530e-01 7.98e-04 1.12e-01  -7.5 1.27e+01  -7.6 1.00e+00 2.79e-01h  1
  93 -1.2823563e-01 1.26e-02 5.21e-02  -7.5 2.20e+02  -8.1 3.29e-02 7.40e-02h  1
  94 -1.2824339e-01 1.10e-01 2.29e-01  -7.5 2.66e+03    -  9.42e-02 3.13e-02h  1
  95 -1.2824577e-01 1.11e-01 5.30e+00  -7.5 5.89e+02    -  4.67e-01 2.30e-02f  1
  96 -1.2826224e-01 5.15e-02 3.87e+00  -7.5 8.57e+01    -  1.00e+00 5.55e-01h  1
  97 -1.2827564e-01 3.77e-02 4.99e+00  -7.5 6.33e+01    -  6.45e-01 4.57e-01h  1
  98 -1.2830965e-01 5.97e-02 2.96e-01  -7.5 5.75e+01    -  1.00e+00 1.00e+00h  1
  99 -1.2832498e-01 4.66e-02 4.74e+01  -7.5 5.75e+01    -  6.49e-01 2.99e-01h  1
iter    objective    inf_pr   inf_du lg(mu)  ||d||  lg(rg) alpha_du alpha_pr  ls
 100 -1.2837887e-01 6.62e-02 1.27e-01  -7.5 6.47e+01    -  1.00e+00 1.00e+00h  1
 101 -1.2840088e-01 6.71e-02 1.22e+02  -7.5 1.20e+02    -  4.80e-01 3.04e-01h  1
 102 -1.2847878e-01 9.33e-02 7.56e+00  -7.5 7.21e+01    -  1.00e+00 1.00e+00f  1
 103 -1.2850860e-01 8.20e-02 5.73e+01  -7.5 1.00e+02    -  3.60e-01 3.30e-01h  1
 104 -1.2857341e-01 8.51e-02 2.92e+03  -7.5 7.63e+01    -  8.43e-03 8.26e-01h  1
 105 -1.2858671e-01 7.86e-02 1.28e+03  -7.5 2.80e+02    -  1.37e-01 7.94e-02h  1
 106 -1.2858649e-01 7.85e-02 5.94e+04  -7.5 6.60e+03    -  1.11e-04 1.29e-03h  7
 107 -1.2864901e-01 4.07e-01 2.16e+03  -7.5 1.61e+02    -  2.87e-01 1.00e+00h  1
 108 -1.2864979e-01 4.06e-01 2.21e+03  -7.5 6.13e+02    -  1.22e-01 2.41e-03h  1
 109 -1.2869925e-01 1.39e-01 7.02e+01  -7.5 9.34e+01    -  8.94e-01 1.00e+00f  1
iter    objective    inf_pr   inf_du lg(mu)  ||d||  lg(rg) alpha_du alpha_pr  ls
 110 -1.2871964e-01 1.32e-01 6.17e+01  -7.5 2.04e+02    -  2.58e-01 1.27e-01h  1
 111 -1.2878633e-01 3.75e-02 5.52e-01  -7.5 4.85e+01    -  1.00e+00 1.00e+00h  1
 112 -1.2881371e-01 2.59e-02 1.81e+01  -7.5 4.43e+01    -  5.59e-01 3.19e-01h  1
 113 -1.2890110e-01 3.54e-02 6.87e-01  -7.5 4.42e+01    -  1.00e+00 1.00e+00h  1
 114 -1.2894234e-01 3.59e-02 6.35e+01  -7.5 1.09e+02    -  6.61e-01 4.34e-01h  1
 115 -1.2903520e-01 6.56e-01 1.31e+00  -7.5 2.03e+02    -  1.00e+00 1.00e+00h  1
 116 -1.2908464e-01 3.35e+00 1.56e+02  -7.5 7.08e+02    -  4.18e-01 6.20e-01h  1
 117 -1.2915382e-01 2.22e+01 3.50e+01  -7.5 1.16e+03    -  9.75e-01 1.00e+00h  1
 118 -1.2915538e-01 2.15e+01 8.02e+02  -7.5 3.27e+03    -  2.75e-01 5.80e-02h  4
 119 -1.2915669e-01 2.10e+01 1.49e+03  -7.5 3.49e+03    -  2.16e-01 5.23e-02h  4
iter    objective    inf_pr   inf_du lg(mu)  ||d||  lg(rg) alpha_du alpha_pr  ls
 120 -1.2914159e-01 4.18e+00 1.66e+02  -7.5 4.84e+02    -  7.76e-01 1.00e+00h  1
 121 -1.2914790e-01 2.18e+00 1.51e+00  -7.5 3.44e+02    -  1.00e+00 1.00e+00h  1
 122 -1.2914765e-01 3.19e-01 2.39e+01  -7.5 4.89e+01    -  5.95e-01 1.00e+00h  1
 123 -1.2914790e-01 4.31e-02 1.25e-03  -7.5 2.42e+01    -  1.00e+00 1.00e+00h  1
 124 -1.2914782e-01 6.65e-03 1.35e-04  -7.5 7.97e+00    -  1.00e+00 1.00e+00h  1
 125 -1.2914783e-01 1.52e-04 4.09e-06  -7.5 1.37e+00    -  1.00e+00 1.00e+00h  1
 126 -1.2914783e-01 2.67e-08 6.50e-10  -7.5 1.74e-02    -  1.00e+00 1.00e+00h  1
 127 -1.2915417e-01 8.70e+00 7.84e+00  -9.0 5.64e+02    -  1.21e-01 9.21e-01h  1
 128 -1.2915337e-01 5.40e-02 4.41e+00  -9.0 1.92e+01    -  1.83e-01 1.00e+00h  1
 129 -1.2915482e-01 9.87e-01 3.23e+00  -9.0 1.91e+02    -  2.76e-01 1.00e+00h  1
iter    objective    inf_pr   inf_du lg(mu)  ||d||  lg(rg) alpha_du alpha_pr  ls
 130 -1.2915483e-01 1.33e-04 7.05e-04  -9.0 2.44e+00  -8.5 1.00e+00 1.00e+00h  1
 131 -1.2915486e-01 2.59e-04 2.21e-05  -9.0 4.15e+00  -9.0 1.00e+00 1.00e+00h  1
 132 -1.2915496e-01 2.36e-03 2.57e-05  -9.0 1.24e+01  -9.5 1.00e+00 1.00e+00h  1
 133 -1.2915524e-01 2.15e-02 2.32e-04  -9.0 3.76e+01 -10.0 1.00e+00 1.00e+00h  1
 134 -1.2915613e-01 2.02e-01 2.27e-03  -9.0 1.16e+02 -10.4 1.00e+00 1.00e+00h  1
 135 -1.2915931e-01 2.45e+00 2.99e-02  -9.0 4.03e+02 -10.9 1.00e+00 1.00e+00h  1
 136 -1.2917340e-01 3.74e+01 5.62e-01  -9.0 3.84e+04 -11.4 2.88e-02 3.96e-02h  1
 137 -1.2919159e-01 2.96e+01 4.36e-01  -9.0 5.16e+01  -7.4 1.45e-02 2.08e-01h  1
 138 -1.2919188e-01 2.95e+01 4.33e-01  -9.0 3.30e+00  -6.0 9.19e-01 5.61e-03h  1
 139 -1.2919272e-01 2.92e+01 4.30e-01  -9.0 1.56e+01  -6.5 3.60e-03 8.50e-03h  1
iter    objective    inf_pr   inf_du lg(mu)  ||d||  lg(rg) alpha_du alpha_pr  ls
 140 -1.2919272e-01 2.92e+01 4.30e-01  -9.0 4.59e+00  -6.1 7.56e-02 6.12e-05h  1
 141 -1.2920676e-01 2.60e+01 3.82e-01  -9.0 1.81e+01  -6.6 4.26e-02 1.09e-01h  1
 142 -1.2920677e-01 2.60e+01 3.82e-01  -9.0 6.39e+00  -6.1 1.80e-03 8.71e-05h  1
 143 -1.2920591e-01 2.52e+01 3.70e-01  -9.0 1.96e+01  -6.6 9.98e-03 3.08e-02h  1
 144 -1.2920593e-01 2.52e+01 3.70e-01  -9.0 1.12e+01  -6.2 2.47e-01 2.63e-04h  1
 145 -1.2922756e-01 2.18e+01 3.17e-01  -9.0 1.96e+01  -6.7 1.23e-01 1.33e-01h  1
 146 -1.2929190e-01 1.54e+01 2.42e-01  -9.0 2.37e+01  -6.2 6.93e-02 2.95e-01h  1
 147 -1.2932562e-01 1.14e+01 4.68e-01  -9.0 5.49e+00  -5.8 1.00e+00 2.62e-01h  1
 148 -1.2942132e-01 1.06e+01 5.17e-01  -9.0 8.46e+01  -6.3 5.20e-02 6.95e-02h  1
In iteration 148, 1 Slack too small, adjusting variable bound
 149 -1.2952890e-01 6.28e+00 4.57e+00  -9.0 1.20e+01  -6.8 7.85e-01 4.07e-01h  1
iter    objective    inf_pr   inf_du lg(mu)  ||d||  lg(rg) alpha_du alpha_pr  ls
 150 -1.2957899e-01 5.36e+00 3.79e+00  -9.0 1.87e+01  -7.2 5.43e-01 1.46e-01h  1
 151 -1.2971198e-01 1.16e+00 1.40e-01  -9.0 1.56e+01  -7.7 8.74e-01 7.83e-01h  1
 152 -1.2970788e-01 1.02e+00 1.43e-01  -9.0 1.23e+01  -8.2 4.50e-02 1.22e-01h  1
 153 -1.2969292e-01 4.12e-01 1.36e-01  -9.0 3.76e+01  -8.7 1.00e+00 5.96e-01h  1
 154 -1.2969311e-01 3.00e-01 1.15e-01  -9.0 1.19e+02  -9.1 8.16e-01 9.89e-01h  1
 155 -1.2970048e-01 3.87e-01 9.36e-02  -9.0 4.39e+02  -9.6 1.00e+00 1.87e-01h  1
 156 -1.2971107e-01 6.39e-02 4.21e-01  -9.0 3.74e+02 -10.1 1.00e+00 1.00e+00H  1
 157 -1.2976058e-01 2.76e+01 2.75e+00  -9.0 1.29e+03 -10.6 1.00e+00 1.00e+00h  1
 158 -1.2979788e-01 1.03e+01 6.54e-01  -9.0 7.18e+02 -10.2 1.00e+00 9.40e-01h  1
 159 -1.2988808e-01 5.01e+01 6.72e+00  -9.0 1.06e+04 -10.6 1.44e-02 1.42e-01h  1
iter    objective    inf_pr   inf_du lg(mu)  ||d||  lg(rg) alpha_du alpha_pr  ls
 160 -1.2982697e-01 3.69e+01 1.42e+02  -9.0 1.59e+03    -  2.99e-01 5.00e-01h  2
 161 -1.2993697e-01 4.93e+01 6.22e+01  -9.0 2.30e+03 -10.2 5.62e-01 5.72e-01h  1
 162 -1.3000449e-01 4.19e+01 4.56e+02  -9.0 1.80e+03    -  1.00e+00 2.17e-01h  1
 163 -1.3022736e-01 3.52e+01 1.82e+04  -9.0 1.50e+03    -  1.98e-01 6.45e-01h  1
 164 -1.3042841e-01 2.90e+01 9.08e+03  -9.0 1.38e+03    -  1.13e-01 2.58e-01h  1
 165 -1.3051625e-01 2.75e+01 8.42e+03  -9.0 1.66e+03    -  3.32e-02 5.98e-02h  1
 166 -1.3052146e-01 2.73e+01 1.05e+04  -9.0 4.87e+02    -  2.47e-02 6.04e-03h  1
 167 -1.3054463e-01 2.51e+01 7.45e+03  -9.0 8.14e+01    -  2.42e-02 8.02e-02h  1
 168 -1.3059336e-01 1.94e+01 5.74e+03  -9.0 5.73e+01    -  1.87e-01 2.29e-01h  1
 169 -1.3068691e-01 1.01e+01 3.00e+03  -9.0 4.28e+01    -  4.84e-01 4.78e-01h  1
In iteration 169, 1 Slack too small, adjusting variable bound
iter    objective    inf_pr   inf_du lg(mu)  ||d||  lg(rg) alpha_du alpha_pr  ls
 170 -1.3078615e-01 5.26e+00 3.48e+03  -9.0 1.08e+02    -  9.16e-01 4.87e-01h  1
 171 -1.3092278e-01 2.45e+00 6.72e+02  -9.0 1.38e+02    -  4.95e-01 5.62e-01h  1
 172 -1.3099547e-01 2.03e+00 5.18e+03  -9.0 1.88e+02    -  2.55e-01 1.82e-01h  1
 173r-1.3099547e-01 2.03e+00 1.00e+03   0.1 0.00e+00    -  0.00e+00 6.43e-10R  2
 174r-1.3099456e-01 2.03e+00 1.13e+04   0.1 5.16e+05    -  3.77e-09 1.64e-09f  1
 175 -1.3099826e-01 1.67e+00 1.60e+05  -9.0 2.33e+01    -  1.10e-06 1.76e-01h  1
 176 -1.3099793e-01 1.54e+00 9.52e+05  -9.0 2.84e+01    -  2.71e-02 8.15e-02h  1
 177 -1.3099919e-01 1.53e+00 9.50e+05  -9.0 6.24e+01    -  5.08e-08 5.31e-03h  1
In iteration 177, 1 Slack too small, adjusting variable bound
 178 -1.3101362e-01 8.08e-02 9.62e+04  -9.0 1.75e+01    -  1.16e-04 9.51e-01h  1
In iteration 178, 1 Slack too small, adjusting variable bound
 179 -1.3101362e-01 8.07e-02 9.61e+04  -9.0 1.51e-02   1.6 3.21e-04 7.18e-04h  1
iter    objective    inf_pr   inf_du lg(mu)  ||d||  lg(rg) alpha_du alpha_pr  ls
 180 -1.3101361e-01 8.06e-02 9.60e+04  -9.0 1.98e-02   1.2 1.98e-03 1.50e-03h  1
 181 -1.3101352e-01 8.06e-02 9.59e+04  -9.0 1.06e+00   0.7 7.38e-05 5.60e-04h  1
 182 -1.3101354e-01 7.87e-02 9.42e+04  -9.0 1.26e+00    -  7.95e-01 2.30e-02h  1
 183 -1.3100693e-01 7.85e-02 9.37e+04  -9.0 6.08e+02    -  4.56e-04 6.44e-03h  1
 184 -1.3100156e-01 4.61e-02 2.17e+05  -9.0 5.21e+00    -  3.57e-01 4.15e-01h  1
 185 -1.3099146e-01 3.12e-04 3.93e+05  -9.0 3.65e+00    -  9.67e-01 1.00e+00h  1
 186 -1.3103577e-01 5.97e-04 2.52e+03  -9.0 2.74e+00    -  8.02e-01 1.00e+00h  1
 187 -1.3104861e-01 6.10e-04 2.39e+03  -9.0 2.32e+01    -  6.37e-01 7.24e-02h  1
 188 -1.3116544e-01 1.83e-02 4.30e+03  -9.0 5.45e+01    -  5.51e-01 5.18e-01f  1
 189 -1.3114388e-01 1.43e-02 9.94e+02  -9.0 2.74e+01    -  7.80e-01 7.63e-01h  1
iter    objective    inf_pr   inf_du lg(mu)  ||d||  lg(rg) alpha_du alpha_pr  ls
 190 -1.3121585e-01 3.01e-02 2.60e+03  -9.0 5.26e+01    -  6.58e-01 6.24e-01h  1
 191 -1.3123331e-01 4.86e-01 3.68e+04  -9.0 1.46e+02    -  7.27e-01 1.00e+00h  1
 192 -1.3122580e-01 4.62e-01 2.10e+04  -9.0 2.64e+02    -  2.06e-01 2.50e-01h  3
 193 -1.3121799e-01 1.09e-01 1.57e+04  -9.0 6.90e+01    -  7.02e-01 1.00e+00h  1
 194 -1.3121307e-01 2.07e-02 1.96e+03  -9.0 3.03e+01    -  9.95e-01 1.00e+00h  1
 195 -1.3121309e-01 9.24e-05 1.11e+04  -9.0 2.00e+00    -  9.94e-01 1.00e+00h  1
 196 -1.3121309e-01 4.95e-10 5.51e+03  -9.0 4.73e-03    -  1.00e+00 1.00e+00h  1
 197 -1.3121309e-01 6.34e-10 6.32e+06  -9.0 1.97e-07    -  1.00e+00 1.00e+00H  1
WARNING: Problem in step computation; switching to emergency mode.

Number of Iterations....: 197

                                   (scaled)                 (unscaled)
Objective...............:  -1.3121308652937932e-01   -1.3121308652937932e-01
Dual infeasibility......:   6.3214080909090908e+06    6.3214080909090908e+06
Constraint violation....:   2.1849123552075689e-10    6.3425886764889583e-10
Complementarity.........:   9.0909091020372314e-10    9.0909091020372314e-10
Overall NLP error.......:   2.3865793213710722e-07    6.3214080909090908e+06


Number of objective function evaluations             = 260
Number of objective gradient evaluations             = 198
Number of equality constraint evaluations            = 260
Number of inequality constraint evaluations          = 260
Number of equality constraint Jacobian evaluations   = 199
Number of inequality constraint Jacobian evaluations = 199
Number of Lagrangian Hessian evaluations             = 198
Total CPU secs in IPOPT (w/o function evaluations)   =    117.804
Total CPU secs in NLP function evaluations           =      3.135

EXIT: Solved To Acceptable Level.
